c SAT Generator for power-law distributed variable frequencies
c -g u -v 20 -c 91 -k 3 -p 2.750000 -b 3.200000 -f /home/schmidt/Devel/ni-kop-sat/data/ensemble/ruf20-91/ruf20-91-853 -u 1 -U 1 -s 3373866246
p cnf 20 91
-6 8 18 0
-3 -8 18 0
-2 3 -20 0
-1 -3 -8 0
6 12 18 0
-3 12 -17 0
-4 8 -13 0
4 6 -11 0
12 14 -17 0
-6 9 -13 0
-9 -14 16 0
-1 -12 -15 0
3 -8 20 0
-3 -4 -11 0
-6 8 -17 0
-4 7 17 0
-3 15 18 0
-1 8 -10 0
-1 5 -7 0
3 -10 -12 0
12 -14 15 0
-8 -9 -14 0
2 5 7 0
1 9 -15 0
10 17 19 0
-1 -3 -11 0
-5 -8 17 0
-11 18 19 0
-1 -8 14 0
8 10 12 0
-3 10 15 0
-2 -5 13 0
13 -17 -19 0
-2 13 -17 0
-4 -5 -9 0
3 7 15 0
4 16 -17 0
4 9 -11 0
-7 15 17 0
-2 10 16 0
-9 -10 12 0
-3 16 -19 0
3 11 -18 0
2 -9 20 0
-6 -7 -16 0
6 7 10 0
6 9 17 0
-10 -18 -19 0
-1 -13 18 0
3 9 18 0
-1 2 -10 0
-10 13 -19 0
5 -10 -17 0
3 12 15 0
-3 14 19 0
7 8 -20 0
-4 8 -10 0
-2 11 17 0
-6 15 -16 0
-3 17 -18 0
2 -14 16 0
15 16 20 0
7 15 -19 0
-1 8 -16 0
4 10 -16 0
-5 11 -12 0
-6 11 -16 0
-1 -2 -9 0
11 12 19 0
2 15 16 0
3 -5 -20 0
-12 -14 19 0
2 -17 20 0
1 -4 15 0
-5 9 -19 0
-4 -10 -13 0
-5 -10 12 0
1 -2 -16 0
6 -8 -16 0
-2 -9 -10 0
-9 -18 19 0
-5 -17 18 0
-4 6 19 0
4 6 19 0
-14 -16 -20 0
-10 11 15 0
-8 9 20 0
-7 11 20 0
5 -8 13 0
1 -7 16 0
3 6 10 0
